param W_CLASS:=
1 0.0158099236527977
2 0.1361833452491341
3 0
4 0.17631794025239766
5 -0.17631794025239766
6 0.17631794025239766
7 -0.10539239417071389
8 0.17631794025239766
9 0.04359664864320621
10 0.11206034324729175
11 0.17631794025239766
12 0.17631794025239766
13 -0.17631794025239766
14 0.17631794025239766
15 0.1278461157794215
16 -0.17631794025239766
17 -0.17631794025239766
18 0.17631794025239766
19 -0.17631794025239766;

param B_CLASS:= 34.72453772535909 ;